solution status: time limit reached
objective value:                     123.000000400742
shell_j_$_81                                        1 	(obj:0)
shell_j_$_83                                        1 	(obj:0)
shell_i_$_239                                       1 	(obj:0)
shell_i_$_80                                        1 	(obj:0)
shell_j_$_82                                        1 	(obj:0)
shell_i_$_156                                       1 	(obj:0)
shell_j_$_156                                       1 	(obj:0)
shell_i_$_196                                       1 	(obj:0)
shell_j_$_196                                       1 	(obj:0)
shell_j_$_229                                       1 	(obj:0)
shell_i_$_75                                        1 	(obj:0)
shell_i_$_79                                        1 	(obj:0)
shell_j_$_205                                       1 	(obj:0)
shell_j_$_161                                       1 	(obj:0)
shell_i_$_97                                        1 	(obj:0)
shell_j_$_87                                        1 	(obj:0)
shell_i_$_147                                       1 	(obj:0)
shell_i_$_78                                        1 	(obj:0)
shell_j_$_246                                       1 	(obj:0)
shell_j_$_278                                       1 	(obj:0)
shell_i_$_203                                       1 	(obj:0)
shell_i_$_245                                       1 	(obj:0)
shell_i_$_85                                        1 	(obj:0)
shell_i_$_277                                       1 	(obj:0)
shell_i_$_74                                        1 	(obj:0)
shell_i_$_241                                       1 	(obj:0)
shell_j_$_241                                       1 	(obj:0)
shell_j_$_162                                       1 	(obj:0)
shell_i_$_213                                       1 	(obj:0)
shell_j_$_244                                       1 	(obj:0)
shell_j_$_237                                       1 	(obj:0)
shell_i_$_279                                       1 	(obj:0)
shell_i_$_163                                       1 	(obj:0)
shell_j_$_155                                       1 	(obj:0)
shell_i_$_157                                       1 	(obj:0)
shell_j_$_157                                       1 	(obj:0)
shell_i_$_197                                       1 	(obj:0)
shell_i_$_238                                       1 	(obj:0)
shell_i_$_204                                       1 	(obj:0)
shell_i_$_164                                       1 	(obj:0)
shell_j_$_86                                        1 	(obj:0)
shell_i_$_243                                       1 	(obj:0)
shell_j_$_243                                       1 	(obj:0)
shell_j_$_200                                       1 	(obj:0)
shell_i_$_198                                       1 	(obj:0)
shell_i_$_254                                       1 	(obj:0)
shell_j_$_254                                       1 	(obj:0)
shell_i_$_96                                        1 	(obj:0)
shell_j_$_96                                        1 	(obj:0)
shell_i_$_172                                       1 	(obj:0)
shell_j_$_172                                       1 	(obj:0)
shell_j_$_202                        1.00000000000721 	(obj:0)
shell_i_$_154                                       1 	(obj:0)
shell_j_$_154                                       1 	(obj:0)
shell_j_$_188                                       1 	(obj:0)
shell_i_$_84                                        1 	(obj:0)
shell_i_$_270                                       1 	(obj:0)
shell_j_$_270                                       1 	(obj:0)
shell_i_$_236                                       1 	(obj:0)
shell_i_$_159                                       1 	(obj:0)
shell_i_$_195                                       1 	(obj:0)
shell_j_$_195                                       1 	(obj:0)
$_85_z                                             18 	(obj:0)
$_75_x                                             12 	(obj:0)
$_75_y                                10.999999932531 	(obj:0)
$_277_x                                            12 	(obj:0)
$_277_y                                            10 	(obj:0)
$_277_z                                            25 	(obj:0)
$_75_z                               21.9999999752974 	(obj:0)
$_80_y                               11.0000000500049 	(obj:0)
$_74_x                                             12 	(obj:0)
$_74_y                                              7 	(obj:0)
$_74_z                                             25 	(obj:0)
$_80_z                                             25 	(obj:0)
$_79_x                                             12 	(obj:0)
$_241_x                                            12 	(obj:0)
$_241_y                                            12 	(obj:0)
$_241_z                                            24 	(obj:0)
$_79_y                                              9 	(obj:0)
$_79_z                                             22 	(obj:0)
$_162_x                               9.9999999783824 	(obj:0)
$_162_y                                            12 	(obj:0)
$_162_z                              23.9999999637144 	(obj:0)
$_83_y                                             12 	(obj:0)
$_83_z                                             18 	(obj:0)
$_213_x                                            12 	(obj:0)
$_213_y                              11.0000000207436 	(obj:0)
$_213_z                              17.9999999783051 	(obj:0)
$_205_x                              11.0000000317656 	(obj:0)
$_205_y                                            12 	(obj:0)
$_244_x                                            11 	(obj:0)
$_244_y                                            12 	(obj:0)
$_244_z                                            25 	(obj:0)
$_205_z                                            23 	(obj:0)
$_82_x                                              9 	(obj:0)
$_237_x                                            11 	(obj:0)
$_237_y                                            12 	(obj:0)
$_237_z                                            24 	(obj:0)
$_82_y                                             12 	(obj:0)
$_161_x                                            11 	(obj:0)
$_279_x                                            12 	(obj:0)
$_279_y                              10.0000000635338 	(obj:0)
$_279_z                                            21 	(obj:0)
$_161_y                                            12 	(obj:0)
$_161_z                                            19 	(obj:0)
$_163_x                                            12 	(obj:0)
$_163_y                                             9 	(obj:0)
$_163_z                                            18 	(obj:0)
$_82_z                                             17 	(obj:0)
$_81_z                                             25 	(obj:0)
$_155_x                              9.00000001958605 	(obj:0)
$_155_y                                            12 	(obj:0)
$_155_z                                            23 	(obj:0)
$_97_x                                             12 	(obj:0)
$_97_y                               11.0000000026565 	(obj:0)
$_157_x                                            12 	(obj:0)
$_157_y                                            12 	(obj:0)
$_157_z                                            18 	(obj:0)
$_97_z                                             23 	(obj:0)
$_81_x                                              9 	(obj:0)
$_197_x                                            12 	(obj:0)
$_197_y                              10.9999999921264 	(obj:0)
$_197_z                                            19 	(obj:0)
$_156_x                                            12 	(obj:0)
$_87_x                                              9 	(obj:0)
$_238_x                                            12 	(obj:0)
$_238_y                              10.9999999732678 	(obj:0)
$_238_z                                            17 	(obj:0)
$_87_y                                             12 	(obj:0)
$_87_z                                             20 	(obj:0)
$_204_x                                            12 	(obj:0)
$_204_y                              8.00000005908701 	(obj:0)
$_204_z                              18.9999999741254 	(obj:0)
$_156_y                                            12 	(obj:0)
$_156_z                                            16 	(obj:0)
$_164_x                                            12 	(obj:0)
$_164_y                              9.99999999408733 	(obj:0)
$_164_z                                            20 	(obj:0)
$_147_x                                            12 	(obj:0)
$_147_y                              10.0000000127104 	(obj:0)
$_86_x                                             11 	(obj:0)
$_86_y                                             12 	(obj:0)
$_86_z                                             22 	(obj:0)
$_147_z                                            23 	(obj:0)
$_239_x                                            12 	(obj:0)
$_243_x                                            12 	(obj:0)
$_243_y                                            12 	(obj:0)
$_243_z                                            22 	(obj:0)
$_239_y                              9.99999998357155 	(obj:0)
$_78_x                                             12 	(obj:0)
$_200_x                              10.0000000036288 	(obj:0)
$_200_y                                            12 	(obj:0)
$_200_z                                            20 	(obj:0)
$_78_y                               10.9999999805083 	(obj:0)
$_78_z                               20.0000000216683 	(obj:0)
$_198_x                                            12 	(obj:0)
$_198_y                              8.99999998298926 	(obj:0)
$_198_z                                            20 	(obj:0)
$_196_x                                            12 	(obj:0)
$_196_y                                            12 	(obj:0)
$_254_x                                            12 	(obj:0)
$_254_y                                            12 	(obj:0)
$_254_z                                            19 	(obj:0)
$_246_x                              10.0000000320672 	(obj:0)
$_246_y                                            12 	(obj:0)
$_96_x                                             12 	(obj:0)
$_96_y                                             12 	(obj:0)
$_96_z                                             15 	(obj:0)
$_246_z                                            23 	(obj:0)
$_196_z                                            23 	(obj:0)
$_172_x                                            12 	(obj:0)
$_172_y                                            12 	(obj:0)
$_172_z                                            20 	(obj:0)
$_239_z                                            19 	(obj:0)
$_278_x                              10.9999999971629 	(obj:0)
$_202_x                              11.0000000071741 	(obj:0)
$_202_y                              12.0000000006635 	(obj:0)
$_202_z                                            20 	(obj:0)
$_278_y                                            12 	(obj:0)
$_278_z                                            21 	(obj:0)
$_154_x                                            12 	(obj:0)
$_154_y                                            12 	(obj:0)
$_154_z                                            25 	(obj:0)
$_81_y                                             12 	(obj:0)
$_229_x                              9.99999998466431 	(obj:0)
$_188_x                              9.99999997569005 	(obj:0)
$_188_y                                            12 	(obj:0)
$_188_z                                            19 	(obj:0)
$_203_x                                            12 	(obj:0)
$_203_y                              11.0000000860934 	(obj:0)
$_84_x                                             12 	(obj:0)
$_84_y                                              8 	(obj:0)
$_84_z                                             22 	(obj:0)
$_203_z                                            24 	(obj:0)
$_229_y                                            12 	(obj:0)
$_270_x                                            12 	(obj:0)
$_270_y                                            12 	(obj:0)
$_270_z                                            17 	(obj:0)
$_229_z                                            21 	(obj:0)
$_245_x                                            12 	(obj:0)
$_236_x                                            12 	(obj:0)
$_236_y                                            10 	(obj:0)
$_236_z                                            24 	(obj:0)
$_245_y                                            11 	(obj:0)
$_245_z                                            21 	(obj:0)
$_159_x                                            12 	(obj:0)
$_159_y                                             9 	(obj:0)
$_159_z                                            21 	(obj:0)
$_83_x                                             10 	(obj:0)
$_80_x                                             12 	(obj:0)
$_195_x                                            12 	(obj:0)
$_195_y                                            12 	(obj:0)
$_195_z                                            21 	(obj:0)
$_85_x                                             12 	(obj:0)
$_85_y                                7.9999999996191 	(obj:0)
x259                                                2 	(obj:1)
x268                                                2 	(obj:1)
x269                                 2.00000001774934 	(obj:1)
x270                                                2 	(obj:1)
x272                             -1.25234709601799e-09 	(obj:1)
x280                                                2 	(obj:1)
x282                                 2.00000000376093 	(obj:1)
x288                                                1 	(obj:1)
x289                                 2.00000001680918 	(obj:1)
x291                                 2.00000000376093 	(obj:1)
x292                             7.49530567593088e-09 	(obj:1)
x293                             -1.43725315497359e-09 	(obj:1)
x294                                0.999999997646288 	(obj:1)
x298                                 1.00000000101912 	(obj:1)
x299                                                2 	(obj:1)
x301                                 1.00000003051328 	(obj:1)
x304                                 1.00000000749531 	(obj:1)
x305                                                1 	(obj:1)
x306                                 2.00000000376093 	(obj:1)
x311                                 1.00000000654459 	(obj:1)
x317                                  1.9999999860373 	(obj:1)
x318                             7.49530567593088e-09 	(obj:1)
x320                             2.16165855673428e-08 	(obj:1)
x322                             3.30376009526279e-08 	(obj:1)
x325                                 1.99999996668043 	(obj:1)
x328                                0.999999995910588 	(obj:1)
x330                                                2 	(obj:1)
x331                                 1.00000001874218 	(obj:1)
x334                                 1.00000000439759 	(obj:1)
x338                                 1.00000000744169 	(obj:1)
x339                                                2 	(obj:1)
x340                                                2 	(obj:1)
x341                                  0.9999999965868 	(obj:1)
x344                                                1 	(obj:1)
x345                                                2 	(obj:1)
x353                                                2 	(obj:1)
x364                             2.07504563633086e-09 	(obj:1)
x366                             -1.25234709601932e-09 	(obj:1)
x367                                  2.0000000225316 	(obj:1)
x369                                 1.99999999134173 	(obj:1)
x371                                  1.0000000111773 	(obj:1)
x372                                 1.00000002355386 	(obj:1)
x374                                0.999999998097914 	(obj:1)
x375                             -1.2523470960198e-09 	(obj:1)
x376                                 1.00000000749531 	(obj:1)
x379                                 1.00000000749531 	(obj:1)
x382                                 1.00000000749531 	(obj:1)
x384                                                2 	(obj:1)
x385                                 1.00000000749531 	(obj:1)
x389                                0.999999999866574 	(obj:1)
x397                                  2.9999999876546 	(obj:1)
x398                                                1 	(obj:1)
x399                                 2.00000000371178 	(obj:1)
x400                             -1.25234709601961e-09 	(obj:1)
x402                             7.49530567593088e-09 	(obj:1)
x407                                                2 	(obj:1)
x409                                                1 	(obj:1)
x412                                                2 	(obj:1)
x413                                 1.00000001161288 	(obj:1)
x416                             4.24636056463692e-09 	(obj:1)
x419                              1.3506132234936e-09 	(obj:1)
x421                                                2 	(obj:1)
x422                                 1.00000002807175 	(obj:1)
x424                             1.72342875252859e-08 	(obj:1)
x425                             8.00495615413045e-09 	(obj:1)
x426                             -1.25234709601762e-09 	(obj:1)
x427                             2.88021124778749e-09 	(obj:1)
x428                             -3.14851777950391e-09 	(obj:1)
x430                                                1 	(obj:1)
x431                                 2.00000000852562 	(obj:1)
x435                                                2 	(obj:1)
x436                                 1.00000000749531 	(obj:1)
x448                                                2 	(obj:1)
x449                                  3.0000000176988 	(obj:1)
x450                             1.72342875252936e-08 	(obj:1)
x453                             2.88021124779606e-09 	(obj:1)
x456                                 2.00000000370469 	(obj:1)
x459                             7.49530567593088e-09 	(obj:1)
x462                                 2.00000000376093 	(obj:1)
x464                             7.49530567306474e-09 	(obj:1)
x465                                 6.00000000010291 	(obj:1)
x468                                 3.00000000189565 	(obj:1)
x471                             -1.2523470960202e-09 	(obj:1)
x473                             1.69048823785651e-08 	(obj:1)
x474                             7.49530567593088e-09 	(obj:1)
x475                                0.999999991573602 	(obj:1)
x476                             2.55169322247036e-09 	(obj:1)
x477                                 2.00000000376093 	(obj:1)
x479                                                1 	(obj:1)
x480                                                4 	(obj:1)
x484                                 2.00000002515937 	(obj:1)
x488                                                3 	(obj:1)
x492                                 4.00000000093528 	(obj:1)
x495                                                2 	(obj:1)
x497                                                2 	(obj:1)
x504                                                2 	(obj:1)
